Copyright (C) 2013-2015, Filipe Brandao
Build (method = -2)
  #dp: 7055
  Step-3' Graph: 102 vertices and 2555 arcs (0.01s)
  Step-4' Graph: 102 vertices and 2555 arcs (0.01s)
  #V4/#V3 = 1.00
  #A4/#A3 = 1.00
Ready! (0.01s)
Optimize a model with 189 rows, 2556 columns and 7469 nonzeros
Found heuristic solution: objective 242
Presolve removed 39 rows and 41 columns
Presolve time: 0.02s
Presolved: 150 rows, 2515 columns, 7350 nonzeros
Variable types: 0 continuous, 2515 integer (179 binary)
Optimize a model with 150 rows, 2515 columns and 7350 nonzeros
Presolved: 150 rows, 2515 columns, 7350 nonzeros

Root barrier log...

Ordering time: 0.00s

Barrier statistics:
 AA' NZ     : 4.836e+03
 Factor NZ  : 7.204e+03 (roughly 1 MByte of memory)
 Factor Ops : 4.848e+05 (less than 1 second per iteration)
 Threads    : 1

                  Objective                Residual
Iter       Primal          Dual         Primal    Dual     Compl     Time
   0   5.76575320e+03 -2.54233171e+04  4.83e+04 4.72e-02  6.03e+01     0s
   1   1.77504306e+03 -1.01665101e+04  7.96e+03 5.55e-16  1.09e+01     0s
   2   5.31104328e+02 -4.50488498e+03  9.08e+02 1.09e-02  1.85e+00     0s
   3   3.37443431e+02 -8.30221246e+02  8.34e+01 2.89e-15  2.76e-01     0s
   4   2.70082740e+02 -3.91601052e+02  2.37e+01 1.55e-15  1.40e-01     0s
   5   2.31477704e+02 -6.80264565e+01  1.37e+01 4.44e-16  6.29e-02     0s
   6   2.05187558e+02  3.07926251e+01  9.09e+00 2.22e-16  3.66e-02     0s
   7   1.67648087e+02  6.44018509e+01  4.25e+00 3.33e-16  2.13e-02     0s
   8   1.43160220e+02  9.14509797e+01  1.54e+00 2.22e-16  1.05e-02     0s
   9   1.39114256e+02  1.05919098e+02  1.13e+00 2.22e-16  6.73e-03     0s
  10   1.35051338e+02  1.14677918e+02  6.98e-01 2.22e-16  4.12e-03     0s
  11   1.32762316e+02  1.22577348e+02  2.73e-01 2.22e-16  2.03e-03     0s
  12   1.31322897e+02  1.25626414e+02  1.32e-01 2.43e-16  1.13e-03     0s
  13   1.30659861e+02  1.28241595e+02  6.05e-02 2.22e-16  4.79e-04     0s
  14   1.30500282e+02  1.28568405e+02  4.73e-02 1.38e-16  3.83e-04     0s
  15   1.30276409e+02  1.28813020e+02  2.98e-02 2.22e-16  2.89e-04     0s
  16   1.30049510e+02  1.29183175e+02  1.35e-02 2.22e-16  1.71e-04     0s
  17   1.29964998e+02  1.29440418e+02  8.83e-03 2.24e-16  1.04e-04     0s
  18   1.29866640e+02  1.29563971e+02  3.70e-03 2.22e-16  5.97e-05     0s
  19   1.29795981e+02  1.29646743e+02  1.41e-03 2.31e-16  2.94e-05     0s
  20   1.29782709e+02  1.29674500e+02  1.04e-03 2.22e-16  2.13e-05     0s
  21   1.29774194e+02  1.29694177e+02  8.13e-04 2.22e-16  1.58e-05     0s
  22   1.29764080e+02  1.29707999e+02  4.10e-04 3.33e-16  1.11e-05     0s
  23   1.29754170e+02  1.29719101e+02  1.83e-04 2.01e-16  6.91e-06     0s
  24   1.29751829e+02  1.29729618e+02  1.40e-04 2.22e-16  4.38e-06     0s
  25   1.29746163e+02  1.29738026e+02  3.73e-05 2.22e-16  1.60e-06     0s
  26   1.29743683e+02  1.29743390e+02  6.77e-08 3.33e-16  5.76e-08     0s
  27   1.29743590e+02  1.29743590e+02  4.59e-12 4.44e-16  5.77e-11     0s
  28   1.29743590e+02  1.29743590e+02  1.53e-12 2.22e-16  8.74e-17     0s

Barrier solved model in 28 iterations and 0.03 seconds
Optimal objective 1.29743590e+02


Root relaxation: objective 1.297436e+02, 170 iterations, 0.03 seconds

    Nodes    |    Current Node    |     Objective Bounds      |     Work
 Expl Unexpl |  Obj  Depth IntInf | Incumbent    BestBd   Gap | It/Node Time

     0     0  129.74359    0   57  242.00000  129.74359  46.4%     -    0s
H    0     0                     130.0000000  129.74359  0.20%     -    0s

Explored 0 nodes (431 simplex iterations) in 0.07 seconds
Thread count was 1 (of 4 available processors)

Optimal solution found (tolerance 0.00e+00)
Best objective 1.300000000000e+02, best bound 1.300000000000e+02, gap 0.0%
Preprocessing time: 0.01 seconds
Gurobi run time: 0.07 seconds
Total run time: 0.08 seconds
Objective: 130
Solution:
3 x [i=1, i=75]
2 x [i=2, i=73]
1 x [i=2, i=74]
3 x [i=3, i=72]
3 x [i=4, i=71]
2 x [i=5, i=70]
2 x [i=5, i=84, i=85]
1 x [i=6, i=69]
2 x [i=6, i=81, i=87]
2 x [i=6, i=82, i=86]
1 x [i=6, i=84]
6 x [i=7, i=68]
2 x [i=8, i=67]
2 x [i=9, i=66]
1 x [i=9, i=81, i=84]
1 x [i=9, i=82, i=83]
1 x [i=10, i=65]
3 x [i=11, i=64]
1 x [i=12, i=64]
2 x [i=12, i=79, i=83]
1 x [i=12, i=81, i=81]
1 x [i=13, i=63]
2 x [i=14, i=62]
2 x [i=15, i=61]
1 x [i=16, i=60]
4 x [i=17, i=59]
4 x [i=18, i=58]
1 x [i=19, i=57]
2 x [i=20, i=56]
1 x [i=20, i=76, i=78]
2 x [i=21, i=55]
3 x [i=22, i=54]
1 x [i=22, i=75, i=77]
1 x [i=22, i=76, i=76]
3 x [i=23, i=53]
1 x [i=23, i=65, i=86]
2 x [i=23, i=71, i=80]
2 x [i=24, i=52]
2 x [i=24, i=67, i=83]
3 x [i=25, i=50]
2 x [i=26, i=49]
1 x [i=27, i=48]
4 x [i=28, i=47]
1 x [i=28, i=48]
1 x [i=29, i=46]
2 x [i=30, i=45]
1 x [i=31, i=44]
2 x [i=32, i=43]
2 x [i=33, i=42]
2 x [i=33, i=43]
1 x [i=33, i=62, i=79]
1 x [i=34, i=41]
2 x [i=35, i=40]
2 x [i=36, i=39]
2 x [i=36, i=40]
1 x [i=36, i=58, i=80]
1 x [i=36, i=60, i=78]
1 x [i=36, i=61, i=77]
3 x [i=37, i=38]
1 x [i=38, i=58, i=78]
3 x [i=41, i=55, i=78]
2 x [i=44, i=48, i=82]
2 x [i=44, i=49, i=81]
1 x [i=44, i=51, i=79]
1 x [i=45, i=46, i=83]
1 x [i=45, i=49]
1 x [i=45, i=64, i=64]
1 x [i=46, i=48, i=80]
1 x [i=46, i=49, i=79]
1 x [i=49, i=63, i=63]
1 x [i=50, i=62, i=63]
2 x [i=57, i=57, i=61]
